
--- Job DIETER.gms Start 10/24/18 11:43:21 24.2.3 r46072 WEX-WEI x86_64/MS Windows
GAMS 24.2.3   Copyright (C) 1987-2014 GAMS Development. All rights reserved
Licensee: Medium MUD - 10 User License                   S170316:1123AO-GEN
          Deutsches Institut fuer Wirtschaftsforschung DIW, AbteilungDC3975
          License for teaching and research at degree granting institutions
          License_Admin:_Claudia_Kemfert,_bbibra@diw.de____________________
--- Starting compilation
--- DIETER.gms(153) 3 Mb
--- .dataload.gms(405) 3 Mb
--- GDXin=C:\Users\cguenther\Documents\GitHub\prosumage\Code\Prosumage_Opt\Dieter_Module\Modified_MCP\Data_input.gdx
--- .dataload.gms(457) 3 Mb
--- GDXin=C:\Users\cguenther\Documents\GitHub\prosumage\Code\Prosumage_Opt\Dieter_Module\Modified_MCP\time_series.gdx
--- .dataload.gms(787) 25 Mb
--- DIETER.gms(267) 25 Mb
--- .model.gms(447) 25 Mb
--- DIETER.gms(388) 25 Mb
--- .fix.gms(175) 25 Mb
--- DIETER.gms(389) 25 Mb
--- .scenario.gms(122) 25 Mb
--- DIETER.gms(453) 25 Mb
--- .report.gms(774) 25 Mb
--- DIETER.gms(472) 26 Mb
--- Starting execution: elapsed 0:00:00.082
--- DIETER.gms(1980) 93 Mb
---
--- collecting and writing gdx file 
---
--- Generating LP model DIETER
--- DIETER.gms(1980) 192 Mb
---   271,592 rows  324,136 columns  1,248,838 non-zeroes
---   122,646 nl-code  87,601 nl-non-zeroes
--- DIETER.gms(1980) 190 Mb
--- Executing CPLEX: elapsed 0:00:32.387

GUSS             24.2.3 r46072 Released May 22, 2014 WEI x86_64/MS Windows    
Reading parameter(s) from scenario dictionary
>>  Logoption 2
>>  Optfile 1
>>  Skipbasecase 1
--- Scenario Variable with potential updates identified: phi_min_res

IBM ILOG CPLEX   24.2.3 r46072 Released May 22, 2014 WEI x86_64/MS Windows    
--- GAMS/Cplex licensed for continuous and discrete problems.
Cplex 12.6.0.0

Reading parameter(s) from "C:\Users\cguenther\Documents\GitHub\prosumage\Code\Prosumage_Opt\Dieter_Module\Modified_MCP\cplex.opt"
>>  lpmethod 4
>>  threads 4
>>  epgap 1e-3
Finished reading from "C:\Users\cguenther\Documents\GitHub\prosumage\Code\Prosumage_Opt\Dieter_Module\Modified_MCP\cplex.opt"
Reading data...
Starting Cplex...
Space for names approximately 19.27 Mb
Use option 'names no' to turn use of names off
Tried aggregator 1 time.
LP Presolve eliminated 12655 rows and 38914 columns.
Aggregator did 3 substitutions.
Reduced LP has 258934 rows, 285219 columns, and 904330 nonzeros.
Presolve time = 0.39 sec. (342.92 ticks)
Parallel mode: using up to 4 threads for barrier.

***NOTE: Found 16 dense columns.

Number of nonzeros in lower triangle of A*A' = 780622
Using Approximate Minimum Degree ordering
Total time for automatic ordering = 0.16 sec. (102.75 ticks)
Summary statistics for Cholesky factor:
  Threads                   = 4
  Rows in Factor            = 258950
  Integer space required    = 722524
  Total non-zeros in factor = 3283741
  Total FP ops to factor    = 63813971
 Itn      Primal Obj        Dual Obj  Prim Inf Upper Inf  Dual Inf Inf Ratio
   0  4.6266042e+012 -1.0647068e+011 1.59e+011 1.43e+007 1.99e+010 1.00e+000
   1  6.9311540e+011  1.1108108e+010 2.30e+010 2.07e+006 2.87e+009 9.71e-007
   2  3.8492562e+011  4.0868341e+010 1.20e+010 1.08e+006 4.47e+008 6.31e-008
   3  4.8968243e+011  9.1066817e+010 1.36e+010 1.22e+006 4.94e+008 1.85e-008
   4  2.3908689e+011  9.3986146e+010 4.95e+009 4.46e+005 1.11e+008 7.77e-008
   5  1.5900053e+011  4.5624738e+010 3.13e+009 2.82e+005 3.74e+007 6.30e-008
   6  1.0085052e+011  3.5649765e+010 1.78e+009 1.60e+005 2.00e+007 1.01e-007
   7  8.6926190e+010  3.4489575e+010 1.42e+009 1.28e+005 1.22e+007 1.43e-007
   8  5.9693230e+010  3.2921640e+010 7.24e+008 6.52e+004 6.31e+006 2.73e-007
   9  4.8972616e+010  3.3241278e+010 4.23e+008 3.81e+004 4.22e+006 4.40e-007
  10  4.4994921e+010  3.3267545e+010 3.11e+008 2.80e+004 4.08e+006 4.86e-007
  11  4.3115454e+010  3.3697674e+010 2.56e+008 2.30e+004 2.41e+006 9.19e-007
  12  4.1283168e+010  3.3720155e+010 2.06e+008 1.85e+004 1.77e+006 1.35e-006
  13  3.8673844e+010  3.3717086e+010 1.35e+008 1.21e+004 1.28e+006 2.08e-006
  14  3.6666012e+010  3.3654172e+010 8.20e+007 7.38e+003 7.92e+005 3.75e-006
  15  3.5665601e+010  3.3613328e+010 5.57e+007 5.01e+003 4.76e+005 7.63e-006
  16  3.5231985e+010  3.3584490e+010 4.45e+007 4.00e+003 3.46e+005 1.17e-005
  17  3.5197319e+010  3.3593018e+010 4.33e+007 3.90e+003 3.36e+005 1.21e-005
  18  3.4883812e+010  3.3582939e+010 3.50e+007 3.15e+003 2.27e+005 2.07e-005
  19  3.4469662e+010  3.3566716e+010 2.43e+007 2.19e+003 1.55e+005 3.47e-005
  20  3.4288010e+010  3.3556966e+010 1.96e+007 1.77e+003 1.18e+005 5.00e-005
  21  3.4065212e+010  3.3549793e+010 1.39e+007 1.25e+003 9.16e+004 7.03e-005
  22  3.3970972e+010  3.3547483e+010 1.14e+007 1.03e+003 7.59e+004 9.01e-005
  23  3.3927359e+010  3.3544716e+010 1.03e+007 9.24e+002 5.46e+004 1.40e-004
  24  3.3801080e+010  3.3543189e+010 6.94e+006 6.25e+002 4.38e+004 1.87e-004
  25  3.3785037e+010  3.3545028e+010 6.47e+006 5.82e+002 4.01e+004 2.09e-004
  26  3.3661958e+010  3.3544755e+010 3.16e+006 2.85e+002 2.45e+004 4.15e-004
  27  3.3608242e+010  3.3545845e+010 1.68e+006 1.52e+002 1.26e+004 1.04e-003
  28  3.3590387e+010  3.3545649e+010 1.21e+006 1.09e+002 9.22e+003 1.56e-003
  29  3.3587889e+010  3.3545732e+010 1.14e+006 1.03e+002 7.99e+003 1.88e-003
  30  3.3579249e+010  3.3545510e+010 9.14e+005 8.23e+001 6.78e+003 2.31e-003
  31  3.3572183e+010  3.3545426e+010 7.27e+005 6.54e+001 6.07e+003 2.66e-003
  32  3.3566615e+010  3.3545401e+010 5.77e+005 5.20e+001 5.47e+003 3.03e-003
  33  3.3562867e+010  3.3545398e+010 4.75e+005 4.28e+001 4.36e+003 4.06e-003
  34  3.3557942e+010  3.3545358e+010 3.43e+005 3.09e+001 3.67e+003 5.07e-003
  35  3.3555376e+010  3.3545322e+010 2.74e+005 2.47e+001 2.97e+003 6.65e-003
  36  3.3554131e+010  3.3545278e+010 2.41e+005 2.17e+001 2.50e+003 8.26e-003
  37  3.3552796e+010  3.3545227e+010 2.06e+005 1.86e+001 2.18e+003 9.81e-003
  38  3.3551389e+010  3.3545181e+010 1.70e+005 1.53e+001 1.93e+003 1.15e-002
  39  3.3550382e+010  3.3545061e+010 1.44e+005 1.29e+001 1.24e+003 2.06e-002
  40  3.3548426e+010  3.3544951e+010 9.55e+004 8.59e+000 9.62e+002 2.81e-002
  41  3.3547227e+010  3.3544896e+010 6.54e+004 5.88e+000 8.02e+002 3.52e-002
  42  3.3546861e+010  3.3544875e+010 5.60e+004 5.04e+000 7.24e+002 3.99e-002
  43  3.3546691e+010  3.3544840e+010 5.17e+004 4.65e+000 6.03e+002 5.01e-002
  44  3.3546533e+010  3.3544792e+010 4.77e+004 4.29e+000 4.73e+002 6.76e-002
  45  3.3546323e+010  3.3544749e+010 4.26e+004 3.84e+000 3.86e+002 8.66e-002
  46  3.3545987e+010  3.3544711e+010 3.46e+004 3.11e+000 3.15e+002 1.10e-001
  47  3.3545906e+010  3.3544642e+010 3.26e+004 2.94e+000 1.86e+002 2.10e-001
  48  3.3545455e+010  3.3544612e+010 2.23e+004 2.00e+000 1.51e+002 2.64e-001
  49  3.3545259e+010  3.3544591e+010 1.76e+004 1.58e+000 1.16e+002 3.54e-001
  50  3.3545090e+010  3.3544585e+010 1.35e+004 1.22e+000 1.05e+002 3.91e-001
  51  3.3544833e+010  3.3544573e+010 7.23e+003 6.51e-001 7.69e+001 5.55e-001
  52  3.3544817e+010  3.3544572e+010 6.81e+003 6.14e-001 7.43e+001 5.77e-001
  53  3.3544802e+010  3.3544570e+010 6.42e+003 5.78e-001 6.72e+001 6.48e-001
  54  3.3544742e+010  3.3544567e+010 4.88e+003 4.40e-001 5.66e+001 7.89e-001
  55  3.3544637e+010  3.3544566e+010 2.19e+003 1.97e-001 5.30e+001 8.52e-001
  56  3.3544621e+010  3.3544563e+010 1.70e+003 1.56e-001 2.79e+001 1.96e+000
  57  3.3544612e+010  3.3544562e+010 1.51e+003 1.38e-001 2.60e+001 2.13e+000
  58  3.3544610e+010  3.3544562e+010 1.45e+003 1.33e-001 2.54e+001 2.18e+000
  59  3.3544606e+010  3.3544561e+010 1.35e+003 1.24e-001 2.34e+001 2.39e+000
  60  3.3544585e+010  3.3544559e+010 8.86e+002 8.14e-002 2.12e+001 2.69e+000
  61  3.3544576e+010  3.3544557e+010 6.77e+002 6.21e-002 1.76e+001 3.34e+000
  62  3.3544566e+010  3.3544551e+010 4.46e+002 4.07e-002 7.60e+000 9.87e+000
  63  3.3544557e+010  3.3544549e+010 3.04e+002 2.39e-002 5.60e+000 1.37e+001
  64  3.3544548e+010  3.3544547e+010 1.11e+002 7.80e-003 3.51e+000 2.28e+001
  65  3.3544545e+010  3.3544547e+010 5.30e+001 2.16e-003 3.06e+000 2.67e+001
  66  3.3544545e+010  3.3544545e+010 4.82e+001 1.98e-003 1.56e+000 6.47e+001
  67  3.3544544e+010  3.3544544e+010 3.90e+002 1.50e-003 7.42e-001 1.60e+002
  68  3.3544543e+010  3.3544543e+010 8.53e+002 4.35e-004 1.98e-001 6.40e+002
  69  3.3544543e+010  3.3544543e+010 1.40e+003 3.22e-005 1.65e-002 7.71e+003
Barrier time = 14.65 sec. (11145.05 ticks)
Parallel mode: deterministic, using up to 4 threads for concurrent optimization.

Dual crossover.
  Dual:  Fixing 100127 variables.
   100126 DMoves:  Infeasibility 1.29887212e-011  Objective 3.35445429e+010
    98734 DMoves:  Infeasibility 1.35145228e-011  Objective 3.35445429e+010
    98350 DMoves:  Infeasibility 1.31876732e-011  Objective 3.35445429e+010
    96802 DMoves:  Infeasibility 1.35891298e-011  Objective 3.35445429e+010
    88895 DMoves:  Infeasibility 1.35678135e-011  Objective 3.35445429e+010
    84894 DMoves:  Infeasibility 1.35500500e-011  Objective 3.35445429e+010
    81836 DMoves:  Infeasibility 1.35909062e-011  Objective 3.35445429e+010
    78597 DMoves:  Infeasibility 1.37916345e-011  Objective 3.35445429e+010
    60005 DMoves:  Infeasibility 1.38236089e-011  Objective 3.35445429e+010
    56126 DMoves:  Infeasibility 1.35749190e-011  Objective 3.35445429e+010
    53264 DMoves:  Infeasibility 1.38307144e-011  Objective 3.35445429e+010
    41262 DMoves:  Infeasibility 1.35962352e-011  Objective 3.35445429e+010
    37246 DMoves:  Infeasibility 1.37045930e-011  Objective 3.35445429e+010
    17881 DMoves:  Infeasibility 1.46727075e-011  Objective 3.35445429e+010
    12585 DMoves:  Infeasibility 1.45305989e-011  Objective 3.35445429e+010
        0 DMoves:  Infeasibility 1.86213683e-011  Objective 3.35445429e+010
  Dual:  Pushed 78955, exchanged 21172.
  Primal:  Fixing 4595 variables.
     4594 PMoves:  Infeasibility 5.02713488e-001  Objective 3.35445429e+010
     3102 PMoves:  Infeasibility 2.43725891e-001  Objective 3.35445429e+010
     1669 PMoves:  Infeasibility 3.39696271e-010  Objective 3.35445429e+010
       37 PMoves:  Infeasibility 2.41016096e-011  Objective 3.35445429e+010
        0 PMoves:  Infeasibility 2.41016096e-011  Objective 3.35445429e+010
  Primal:  Pushed 780, exchanged 3815.
Elapsed time = 18.34 sec. (17117.18 ticks, 1 iterations)

Iteration log . . .
Iteration:     1   Dual objective     =   33544542852.732597
Using devex.

Primal simplex solved model.

Total crossover time = 3.76 sec. (6147.73 ticks)

Total time on 4 threads = 18.83 sec. (17645.48 ticks)
LP status(1): optimal
Cplex Time: 18.83sec (det. 17646.26 ticks)

Optimal solution found.
Objective : 33544542852.728622

--- Scenario scen1:     Records read:    1
--- Solution statistics for scenario scen1
---   Solver Status    1 Normal Completion         
---   Model Status     1 Optimal                   
---   Objective Value  33544542852.7286
---   Resource Usage   19220
---   Total Time (ms)  19282
--- Restarting execution
--- DIETER.gms(1980) 107 Mb
--- Reading solution for model DIETER
--- Executing after solve: elapsed 0:00:52.490
--- DIETER.gms(1980) 107 Mb
---
--- scattering and reading gdx file 
---
--- DIETER.gms(1980) 108 Mb
--- marginal Id = con5a_minRES maps to marginal_con5a
--- marginal Id = con1a_bal maps to marginal_con1a
--- level    Id = Z maps to lev_Z
--- level    Id = G_L maps to lev_G_L
--- level    Id = G_UP maps to lev_G_UP
--- level    Id = G_DO maps to lev_G_DO
--- level    Id = G_RES maps to lev_G_RES
--- level    Id = CU maps to lev_CU
--- level    Id = STO_IN maps to lev_STO_IN
--- level    Id = STO_OUT maps to lev_STO_OUT
--- level    Id = STO_L maps to lev_STO_L
--- level    Id = N_TECH maps to lev_N_TECH
--- level    Id = N_STO_E maps to lev_N_STO_E
--- level    Id = N_STO_P maps to lev_N_STO_P
--- DIETER.gms(1980) 109 Mb
--- Scatter finished in 31 ms
--- DIETER.gms(2761) 110 Mb
--- GDX File C:\Users\cguenther\Documents\GitHub\prosumage\Code\Prosumage_Opt\Dieter_Module\Modified_MCP\test.gdx
*** Status: Normal completion
--- Job DIETER.gms Stop 10/24/18 11:44:15 elapsed 0:00:53.676
